p edge 300 2100
e 1 58
e 1 58
e 1 122
e 1 147
e 1 206
e 1 271
e 1 298
e 2 37
e 2 58
e 2 116
e 2 119
e 2 121
e 2 136
e 2 256
e 3 18
e 3 51
e 3 121
e 3 179
e 3 218
e 3 252
e 3 256
e 4 46
e 4 50
e 4 73
e 4 97
e 4 107
e 4 177
e 4 241
e 5 11
e 5 32
e 5 34
e 5 176
e 5 181
e 5 218
e 5 290
e 6 11
e 6 34
e 6 49
e 6 65
e 6 75
e 6 144
e 6 248
e 7 4
e 7 16
e 7 31
e 7 120
e 7 156
e 7 174
e 7 199
e 8 6
e 8 86
e 8 104
e 8 150
e 8 158
e 8 181
e 8 256
e 9 32
e 9 50
e 9 110
e 9 190
e 9 195
e 9 238
e 9 292
e 10 19
e 10 104
e 10 152
e 10 222
e 10 224
e 10 252
e 10 293
e 11 4
e 11 47
e 11 89
e 11 113
e 11 225
e 11 247
e 11 278
e 12 17
e 12 44
e 12 93
e 12 103
e 12 119
e 12 251
e 12 276
e 13 24
e 13 37
e 13 81
e 13 110
e 13 148
e 13 192
e 13 209
e 14 5
e 14 48
e 14 89
e 14 156
e 14 198
e 14 217
e 14 275
e 15 23
e 15 69
e 15 150
e 15 168
e 15 174
e 15 213
e 15 299
e 16 56
e 16 119
e 16 127
e 16 151
e 16 171
e 16 173
e 16 216
e 17 72
e 17 90
e 17 170
e 17 173
e 17 174
e 17 218
e 17 243
e 18 7
e 18 36
e 18 99
e 18 99
e 18 117
e 18 152
e 18 209
e 19 9
e 19 94
e 19 137
e 19 173
e 19 178
e 19 187
e 19 220
e 20 14
e 20 168
e 20 186
e 20 187
e 20 226
e 20 242
e 20 256
e 21 70
e 21 102
e 21 180
e 21 193
e 21 197
e 21 241
e 21 248
e 22 19
e 22 42
e 22 90
e 22 106
e 22 115
e 22 118
e 22 121
e 23 2
e 23 70
e 23 133
e 23 153
e 23 189
e 23 247
e 23 283
e 24 31
e 24 57
e 24 74
e 24 115
e 24 176
e 24 221
e 24 287
e 25 3
e 25 114
e 25 189
e 25 219
e 25 252
e 25 258
e 25 296
e 26 5
e 26 58
e 26 119
e 26 182
e 26 235
e 26 240
e 26 283
e 27 54
e 27 58
e 27 178
e 27 188
e 27 195
e 27 250
e 27 292
e 28 99
e 28 101
e 28 134
e 28 135
e 28 137
e 28 158
e 28 176
e 29 5
e 29 35
e 29 131
e 29 187
e 29 198
e 29 248
e 29 287
e 30 55
e 30 151
e 30 234
e 30 236
e 30 247
e 30 263
e 30 296
e 31 17
e 31 57
e 31 74
e 31 117
e 31 169
e 31 204
e 31 252
e 32 8
e 32 9
e 32 53
e 32 79
e 32 138
e 32 255
e 32 296
e 33 4
e 33 21
e 33 51
e 33 142
e 33 152
e 33 227
e 33 275
e 34 8
e 34 12
e 34 75
e 34 95
e 34 136
e 34 266
e 34 274
e 35 8
e 35 14
e 35 57
e 35 190
e 35 205
e 35 254
e 35 259
e 36 98
e 36 101
e 36 123
e 36 128
e 36 178
e 36 179
e 36 275
e 37 53
e 37 61
e 37 179
e 37 179
e 37 186
e 37 226
e 37 279
e 38 68
e 38 182
e 38 185
e 38 209
e 38 266
e 38 277
e 38 288
e 39 38
e 39 102
e 39 119
e 39 167
e 39 235
e 39 244
e 39 260
e 40 17
e 40 31
e 40 75
e 40 105
e 40 146
e 40 196
e 40 272
e 41 36
e 41 79
e 41 158
e 41 179
e 41 194
e 41 200
e 41 291
e 42 14
e 42 44
e 42 46
e 42 88
e 42 109
e 42 156
e 42 229
e 43 34
e 43 183
e 43 223
e 43 225
e 43 233
e 43 292
e 43 299
e 44 2
e 44 23
e 44 77
e 44 104
e 44 117
e 44 152
e 44 161
e 45 39
e 45 100
e 45 130
e 45 149
e 45 165
e 45 194
e 45 273
e 46 58
e 46 75
e 46 101
e 46 143
e 46 165
e 46 222
e 46 256
e 47 13
e 47 33
e 47 51
e 47 152
e 47 162
e 47 175
e 47 196
e 48 26
e 48 37
e 48 58
e 48 143
e 48 194
e 48 218
e 48 260
e 49 3
e 49 45
e 49 54
e 49 77
e 49 158
e 49 194
e 49 205
e 50 51
e 50 56
e 50 89
e 50 119
e 50 237
e 50 268
e 50 275
e 51 57
e 51 132
e 51 153
e 51 227
e 51 242
e 51 257
e 51 284
e 52 15
e 52 42
e 52 89
e 52 108
e 52 120
e 52 189
e 52 237
e 53 39
e 53 116
e 53 124
e 53 126
e 53 204
e 53 230
e 53 233
e 54 17
e 54 27
e 54 76
e 54 114
e 54 141
e 54 204
e 54 232
e 55 31
e 55 160
e 55 191
e 55 199
e 55 215
e 55 232
e 55 237
e 56 14
e 56 31
e 56 55
e 56 203
e 56 270
e 56 272
e 56 291
e 57 1
e 57 53
e 57 65
e 57 122
e 57 130
e 57 174
e 57 282
e 58 91
e 58 106
e 58 120
e 58 136
e 58 195
e 58 259
e 58 282
e 59 34
e 59 122
e 59 214
e 59 235
e 59 281
e 59 289
e 59 298
e 60 11
e 60 95
e 60 114
e 60 117
e 60 121
e 60 148
e 60 167
e 61 16
e 61 69
e 61 70
e 61 93
e 61 147
e 61 159
e 61 170
e 62 61
e 62 103
e 62 180
e 62 224
e 62 234
e 62 262
e 62 286
e 63 7
e 63 43
e 63 62
e 63 87
e 63 112
e 63 129
e 63 283
e 64 12
e 64 22
e 64 32
e 64 111
e 64 148
e 64 160
e 64 172
e 65 7
e 65 8
e 65 120
e 65 184
e 65 209
e 65 226
e 65 246
e 66 39
e 66 43
e 66 135
e 66 205
e 66 241
e 66 249
e 66 256
e 67 34
e 67 59
e 67 96
e 67 111
e 67 128
e 67 161
e 67 241
e 68 2
e 68 44
e 68 82
e 68 96
e 68 197
e 68 232
e 68 262
e 69 15
e 69 17
e 69 48
e 69 76
e 69 79
e 69 219
e 69 296
e 70 2
e 70 76
e 70 130
e 70 188
e 70 202
e 70 208
e 70 262
e 71 44
e 71 50
e 71 59
e 71 245
e 71 246
e 71 284
e 71 298
e 72 10
e 72 29
e 72 65
e 72 125
e 72 146
e 72 200
e 72 242
e 73 36
e 73 44
e 73 66
e 73 75
e 73 96
e 73 214
e 73 263
e 74 105
e 74 135
e 74 175
e 74 209
e 74 275
e 74 277
e 74 290
e 75 52
e 75 53
e 75 81
e 75 104
e 75 120
e 75 121
e 75 234
e 76 123
e 76 148
e 76 179
e 76 184
e 76 272
e 76 285
e 76 288
e 77 22
e 77 29
e 77 74
e 77 84
e 77 107
e 77 134
e 77 282
e 78 1
e 78 96
e 78 171
e 78 183
e 78 231
e 78 274
e 78 289
e 79 17
e 79 105
e 79 121
e 79 162
e 79 249
e 79 254
e 79 290
e 80 106
e 80 109
e 80 138
e 80 139
e 80 241
e 80 241
e 80 278
e 81 30
e 81 46
e 81 156
e 81 193
e 81 229
e 81 254
e 81 265
e 82 76
e 82 105
e 82 156
e 82 157
e 82 239
e 82 247
e 82 285
e 83 27
e 83 67
e 83 78
e 83 181
e 83 194
e 83 221
e 83 230
e 84 20
e 84 29
e 84 130
e 84 142
e 84 183
e 84 233
e 84 260
e 85 7
e 85 26
e 85 43
e 85 63
e 85 70
e 85 201
e 85 284
e 86 80
e 86 108
e 86 192
e 86 228
e 86 264
e 86 284
e 86 300
e 87 30
e 87 36
e 87 128
e 87 128
e 87 141
e 87 226
e 87 273
e 88 38
e 88 42
e 88 109
e 88 118
e 88 175
e 88 265
e 88 266
e 89 54
e 89 82
e 89 125
e 89 127
e 89 168
e 89 195
e 89 284
e 90 11
e 90 40
e 90 60
e 90 102
e 90 165
e 90 249
e 90 282
e 91 19
e 91 48
e 91 76
e 91 85
e 91 129
e 91 169
e 91 170
e 92 28
e 92 43
e 92 48
e 92 135
e 92 171
e 92 253
e 92 283
e 93 35
e 93 40
e 93 100
e 93 130
e 93 143
e 93 155
e 93 193
e 94 69
e 94 79
e 94 113
e 94 201
e 94 246
e 94 263
e 94 289
e 95 100
e 95 113
e 95 142
e 95 142
e 95 152
e 95 202
e 95 258
e 96 38
e 96 73
e 96 138
e 96 172
e 96 204
e 96 279
e 96 297
e 97 40
e 97 41
e 97 145
e 97 165
e 97 169
e 97 262
e 97 293
e 98 26
e 98 28
e 98 53
e 98 97
e 98 175
e 98 182
e 98 203
e 99 46
e 99 66
e 99 87
e 99 166
e 99 180
e 99 216
e 99 219
e 100 73
e 100 86
e 100 107
e 100 139
e 100 186
e 100 214
e 100 295
e 101 10
e 101 14
e 101 117
e 101 177
e 101 189
e 101 217
e 101 289
e 102 4
e 102 26
e 102 76
e 102 98
e 102 230
e 102 234
e 102 285
e 103 37
e 103 53
e 103 90
e 103 149
e 103 160
e 103 252
e 103 278
e 104 23
e 104 66
e 104 99
e 104 121
e 104 215
e 104 248
e 104 298
e 105 67
e 105 70
e 105 144
e 105 187
e 105 207
e 105 261
e 105 284
e 106 81
e 106 93
e 106 129
e 106 152
e 106 169
e 106 211
e 106 283
e 107 10
e 107 26
e 107 51
e 107 205
e 107 205
e 107 276
e 107 281
e 108 2
e 108 2
e 108 31
e 108 69
e 108 106
e 108 158
e 108 265
e 109 7
e 109 30
e 109 53
e 109 72
e 109 194
e 109 233
e 109 245
e 110 11
e 110 24
e 110 121
e 110 154
e 110 191
e 110 205
e 110 271
e 111 20
e 111 77
e 111 78
e 111 98
e 111 152
e 111 188
e 111 226
e 112 73
e 112 169
e 112 224
e 112 225
e 112 246
e 112 256
e 112 277
e 113 25
e 113 31
e 113 50
e 113 131
e 113 188
e 113 234
e 113 296
e 114 18
e 114 80
e 114 110
e 114 152
e 114 166
e 114 194
e 114 218
e 115 10
e 115 28
e 115 82
e 115 106
e 115 138
e 115 228
e 115 248
e 116 5
e 116 33
e 116 82
e 116 119
e 116 236
e 116 269
e 116 286
e 117 2
e 117 166
e 117 191
e 117 220
e 117 231
e 117 248
e 117 255
e 118 2
e 118 12
e 118 96
e 118 189
e 118 238
e 118 262
e 118 295
e 119 37
e 119 61
e 119 125
e 119 135
e 119 152
e 119 176
e 119 196
e 120 31
e 120 41
e 120 121
e 120 142
e 120 203
e 120 258
e 120 270
e 121 30
e 121 91
e 121 112
e 121 125
e 121 171
e 121 236
e 121 258
e 122 151
e 122 160
e 122 178
e 122 224
e 122 259
e 122 260
e 122 282
e 123 5
e 123 35
e 123 59
e 123 97
e 123 101
e 123 195
e 123 196
e 124 6
e 124 23
e 124 28
e 124 97
e 124 116
e 124 118
e 124 137
e 125 9
e 125 115
e 125 148
e 125 158
e 125 174
e 125 211
e 125 214
e 126 69
e 126 86
e 126 146
e 126 163
e 126 211
e 126 245
e 126 300
e 127 68
e 127 105
e 127 144
e 127 168
e 127 179
e 127 246
e 127 279
e 128 14
e 128 63
e 128 189
e 128 194
e 128 210
e 128 253
e 128 274
e 129 46
e 129 68
e 129 73
e 129 98
e 129 120
e 129 157
e 129 186
e 130 10
e 130 45
e 130 85
e 130 240
e 130 248
e 130 294
e 130 297
e 131 56
e 131 58
e 131 96
e 131 132
e 131 156
e 131 158
e 131 294
e 132 52
e 132 69
e 132 124
e 132 156
e 132 163
e 132 171
e 132 277
e 133 41
e 133 96
e 133 145
e 133 184
e 133 207
e 133 225
e 133 229
e 134 60
e 134 86
e 134 111
e 134 113
e 134 210
e 134 292
e 134 294
e 135 48
e 135 133
e 135 148
e 135 149
e 135 169
e 135 209
e 135 219
e 136 6
e 136 22
e 136 61
e 136 66
e 136 123
e 136 126
e 136 171
e 137 4
e 137 6
e 137 79
e 137 89
e 137 99
e 137 130
e 137 184
e 138 52
e 138 102
e 138 194
e 138 197
e 138 208
e 138 280
e 138 287
e 139 25
e 139 62
e 139 125
e 139 132
e 139 241
e 139 251
e 139 280
e 140 109
e 140 142
e 140 198
e 140 268
e 140 289
e 140 290
e 140 293
e 141 41
e 141 91
e 141 106
e 141 119
e 141 168
e 141 233
e 141 294
e 142 41
e 142 44
e 142 107
e 142 119
e 142 258
e 142 280
e 142 300
e 143 35
e 143 38
e 143 51
e 143 75
e 143 116
e 143 146
e 143 263
e 144 62
e 144 93
e 144 97
e 144 98
e 144 221
e 144 285
e 144 287
e 145 33
e 145 36
e 145 86
e 145 174
e 145 199
e 145 199
e 145 207
e 146 69
e 146 110
e 146 215
e 146 227
e 146 240
e 146 255
e 146 260
e 147 46
e 147 51
e 147 55
e 147 66
e 147 106
e 147 228
e 147 280
e 148 48
e 148 70
e 148 82
e 148 171
e 148 202
e 148 237
e 148 276
e 149 62
e 149 90
e 149 91
e 149 99
e 149 188
e 149 243
e 149 298
e 150 25
e 150 48
e 150 102
e 150 112
e 150 123
e 150 196
e 150 216
e 151 6
e 151 14
e 151 53
e 151 67
e 151 121
e 151 223
e 151 274
e 152 39
e 152 103
e 152 196
e 152 210
e 152 211
e 152 262
e 152 282
e 153 22
e 153 97
e 153 125
e 153 215
e 153 241
e 153 267
e 153 279
e 154 35
e 154 54
e 154 186
e 154 193
e 154 213
e 154 284
e 154 293
e 155 51
e 155 85
e 155 176
e 155 188
e 155 232
e 155 274
e 155 276
e 156 10
e 156 14
e 156 137
e 156 162
e 156 259
e 156 280
e 156 289
e 157 4
e 157 37
e 157 43
e 157 52
e 157 62
e 157 140
e 157 248
e 158 18
e 158 49
e 158 79
e 158 96
e 158 220
e 158 244
e 158 255
e 159 158
e 159 193
e 159 218
e 159 257
e 159 262
e 159 293
e 159 296
e 160 11
e 160 22
e 160 72
e 160 124
e 160 209
e 160 232
e 160 238
e 161 97
e 161 135
e 161 158
e 161 213
e 161 254
e 161 265
e 161 285
e 162 1
e 162 18
e 162 71
e 162 192
e 162 201
e 162 204
e 162 267
e 163 18
e 163 70
e 163 82
e 163 165
e 163 200
e 163 240
e 163 269
e 164 19
e 164 63
e 164 137
e 164 173
e 164 230
e 164 277
e 164 294
e 165 29
e 165 50
e 165 62
e 165 116
e 165 121
e 165 238
e 165 267
e 166 22
e 166 70
e 166 106
e 166 170
e 166 203
e 166 231
e 166 236
e 167 23
e 167 25
e 167 28
e 167 70
e 167 255
e 167 262
e 167 280
e 168 10
e 168 23
e 168 94
e 168 186
e 168 235
e 168 242
e 168 253
e 169 85
e 169 135
e 169 146
e 169 154
e 169 155
e 169 177
e 169 191
e 170 129
e 170 142
e 170 164
e 170 184
e 170 202
e 170 213
e 170 242
e 171 15
e 171 34
e 171 96
e 171 120
e 171 184
e 171 191
e 171 236
e 172 74
e 172 81
e 172 98
e 172 246
e 172 260
e 172 263
e 172 294
e 173 4
e 173 94
e 173 99
e 173 114
e 173 229
e 173 230
e 173 243
e 174 9
e 174 20
e 174 92
e 174 150
e 174 154
e 174 173
e 174 228
e 175 17
e 175 43
e 175 98
e 175 163
e 175 265
e 175 272
e 175 282
e 176 15
e 176 120
e 176 183
e 176 257
e 176 267
e 176 279
e 176 299
e 177 54
e 177 100
e 177 127
e 177 178
e 177 229
e 177 268
e 177 275
e 178 44
e 178 68
e 178 112
e 178 203
e 178 246
e 178 270
e 178 276
e 179 87
e 179 174
e 179 216
e 179 244
e 179 273
e 179 276
e 179 293
e 180 18
e 180 42
e 180 61
e 180 138
e 180 236
e 180 276
e 180 289
e 181 64
e 181 107
e 181 108
e 181 220
e 181 254
e 181 284
e 181 286
e 182 83
e 182 99
e 182 123
e 182 183
e 182 231
e 182 250
e 182 273
e 183 95
e 183 126
e 183 128
e 183 159
e 183 171
e 183 221
e 183 257
e 184 45
e 184 79
e 184 113
e 184 117
e 184 120
e 184 138
e 184 278
e 185 2
e 185 51
e 185 62
e 185 109
e 185 126
e 185 221
e 185 237
e 186 15
e 186 56
e 186 91
e 186 103
e 186 122
e 186 194
e 186 275
e 187 17
e 187 20
e 187 75
e 187 93
e 187 127
e 187 167
e 187 238
e 188 31
e 188 41
e 188 81
e 188 195
e 188 241
e 188 254
e 188 264
e 189 3
e 189 34
e 189 160
e 189 192
e 189 205
e 189 218
e 189 294
e 190 56
e 190 58
e 190 61
e 190 68
e 190 115
e 190 194
e 190 266
e 191 2
e 191 20
e 191 46
e 191 46
e 191 175
e 191 181
e 191 266
e 192 63
e 192 110
e 192 132
e 192 184
e 192 247
e 192 266
e 192 291
e 193 68
e 193 146
e 193 149
e 193 200
e 193 206
e 193 240
e 193 266
e 194 46
e 194 63
e 194 95
e 194 123
e 194 187
e 194 203
e 194 209
e 195 2
e 195 19
e 195 20
e 195 102
e 195 150
e 195 207
e 195 268
e 196 14
e 196 24
e 196 139
e 196 148
e 196 202
e 196 234
e 196 253
e 197 31
e 197 40
e 197 58
e 197 140
e 197 172
e 197 244
e 197 289
e 198 26
e 198 40
e 198 75
e 198 101
e 198 124
e 198 126
e 198 269
e 199 20
e 199 22
e 199 119
e 199 155
e 199 228
e 199 253
e 199 297
e 200 25
e 200 79
e 200 130
e 200 172
e 200 233
e 200 254
e 200 300
e 201 82
e 201 100
e 201 158
e 201 164
e 201 213
e 201 229
e 201 252
e 202 41
e 202 48
e 202 53
e 202 70
e 202 146
e 202 150
e 202 259
e 203 15
e 203 106
e 203 118
e 203 161
e 203 193
e 203 276
e 203 283
e 204 8
e 204 11
e 204 16
e 204 56
e 204 181
e 204 235
e 204 268
e 205 12
e 205 180
e 205 224
e 205 244
e 205 257
e 205 273
e 205 298
e 206 9
e 206 46
e 206 141
e 206 143
e 206 191
e 206 195
e 206 213
e 207 72
e 207 150
e 207 151
e 207 197
e 207 198
e 207 300
e 207 300
e 208 37
e 208 41
e 208 55
e 208 158
e 208 210
e 208 266
e 208 275
e 209 19
e 209 30
e 209 34
e 209 35
e 209 96
e 209 103
e 209 182
e 210 41
e 210 46
e 210 53
e 210 77
e 210 153
e 210 217
e 210 286
e 211 15
e 211 33
e 211 38
e 211 68
e 211 126
e 211 226
e 211 236
e 212 67
e 212 80
e 212 184
e 212 230
e 212 235
e 212 263
e 212 282
e 213 78
e 213 79
e 213 86
e 213 105
e 213 229
e 213 290
e 213 290
e 214 17
e 214 145
e 214 156
e 214 173
e 214 202
e 214 241
e 214 247
e 215 27
e 215 122
e 215 156
e 215 240
e 215 282
e 215 292
e 215 293
e 216 8
e 216 37
e 216 55
e 216 68
e 216 81
e 216 200
e 216 247
e 217 46
e 217 125
e 217 139
e 217 231
e 217 266
e 217 266
e 217 281
e 218 8
e 218 88
e 218 98
e 218 124
e 218 229
e 218 261
e 218 297
e 219 64
e 219 72
e 219 74
e 219 125
e 219 194
e 219 246
e 219 254
e 220 53
e 220 60
e 220 131
e 220 191
e 220 192
e 220 200
e 220 239
e 221 46
e 221 56
e 221 58
e 221 94
e 221 159
e 221 179
e 221 250
e 222 44
e 222 60
e 222 71
e 222 78
e 222 105
e 222 149
e 222 247
e 223 36
e 223 68
e 223 76
e 223 127
e 223 131
e 223 260
e 223 280
e 224 85
e 224 86
e 224 133
e 224 208
e 224 220
e 224 250
e 224 253
e 225 12
e 225 22
e 225 32
e 225 91
e 225 142
e 225 180
e 225 201
e 226 15
e 226 81
e 226 122
e 226 137
e 226 138
e 226 144
e 226 251
e 227 43
e 227 144
e 227 184
e 227 197
e 227 232
e 227 239
e 227 268
e 228 14
e 228 98
e 228 101
e 228 147
e 228 178
e 228 276
e 228 296
e 229 71
e 229 108
e 229 190
e 229 234
e 229 274
e 229 280
e 229 282
e 230 34
e 230 154
e 230 175
e 230 181
e 230 182
e 230 244
e 230 273
e 231 137
e 231 145
e 231 154
e 231 161
e 231 227
e 231 255
e 231 280
e 232 61
e 232 70
e 232 128
e 232 179
e 232 208
e 232 222
e 232 231
e 233 38
e 233 47
e 233 74
e 233 120
e 233 175
e 233 198
e 233 297
e 234 54
e 234 59
e 234 75
e 234 160
e 234 186
e 234 211
e 234 282
e 235 10
e 235 42
e 235 86
e 235 87
e 235 136
e 235 143
e 235 269
e 236 17
e 236 205
e 236 213
e 236 223
e 236 251
e 236 254
e 236 293
e 237 4
e 237 13
e 237 92
e 237 115
e 237 117
e 237 183
e 237 236
e 238 12
e 238 64
e 238 111
e 238 132
e 238 180
e 238 190
e 238 284
e 239 28
e 239 116
e 239 118
e 239 185
e 239 269
e 239 275
e 239 290
e 240 8
e 240 8
e 240 77
e 240 97
e 240 143
e 240 171
e 240 289
e 241 45
e 241 89
e 241 140
e 241 205
e 241 230
e 241 236
e 241 273
e 242 28
e 242 37
e 242 39
e 242 171
e 242 185
e 242 227
e 242 230
e 243 40
e 243 46
e 243 94
e 243 101
e 243 211
e 243 223
e 243 235
e 244 50
e 244 76
e 244 84
e 244 95
e 244 102
e 244 219
e 244 299
e 245 8
e 245 49
e 245 83
e 245 160
e 245 221
e 245 226
e 245 299
e 246 96
e 246 154
e 246 176
e 246 182
e 246 192
e 246 210
e 246 228
e 247 15
e 247 90
e 247 100
e 247 117
e 247 145
e 247 170
e 247 239
e 248 104
e 248 130
e 248 131
e 248 197
e 248 204
e 248 208
e 248 261
e 249 6
e 249 7
e 249 114
e 249 202
e 249 208
e 249 232
e 249 283
e 250 43
e 250 66
e 250 89
e 250 172
e 250 252
e 250 255
e 250 278
e 251 8
e 251 99
e 251 110
e 251 152
e 251 206
e 251 262
e 251 299
e 252 1
e 252 5
e 252 109
e 252 171
e 252 204
e 252 219
e 252 241
e 253 16
e 253 22
e 253 74
e 253 124
e 253 145
e 253 218
e 253 277
e 254 31
e 254 49
e 254 81
e 254 85
e 254 90
e 254 100
e 254 128
e 255 32
e 255 45
e 255 83
e 255 89
e 255 91
e 255 203
e 255 229
e 256 1
e 256 45
e 256 47
e 256 59
e 256 61
e 256 110
e 256 168
e 257 67
e 257 90
e 257 168
e 257 189
e 257 197
e 257 234
e 257 264
e 258 7
e 258 13
e 258 132
e 258 162
e 258 163
e 258 283
e 258 298
e 259 13
e 259 89
e 259 124
e 259 147
e 259 172
e 259 210
e 259 231
e 260 15
e 260 24
e 260 82
e 260 111
e 260 153
e 260 221
e 260 252
e 261 36
e 261 128
e 261 164
e 261 169
e 261 172
e 261 206
e 261 258
e 262 18
e 262 34
e 262 45
e 262 61
e 262 97
e 262 120
e 262 256
e 263 26
e 263 91
e 263 110
e 263 174
e 263 183
e 263 260
e 263 267
e 264 60
e 264 74
e 264 77
e 264 83
e 264 86
e 264 184
e 264 223
e 265 72
e 265 94
e 265 107
e 265 121
e 265 143
e 265 239
e 265 281
e 266 9
e 266 51
e 266 114
e 266 122
e 266 152
e 266 199
e 266 284
e 267 78
e 267 106
e 267 111
e 267 240
e 267 247
e 267 288
e 267 294
e 268 2
e 268 43
e 268 78
e 268 88
e 268 155
e 268 215
e 268 253
e 269 54
e 269 97
e 269 145
e 269 145
e 269 214
e 269 218
e 269 223
e 270 45
e 270 55
e 270 128
e 270 133
e 270 215
e 270 256
e 270 288
e 271 15
e 271 31
e 271 66
e 271 111
e 271 116
e 271 236
e 271 244
e 272 21
e 272 132
e 272 240
e 272 252
e 272 254
e 272 285
e 272 295
e 273 4
e 273 47
e 273 48
e 273 90
e 273 115
e 273 261
e 273 294
e 274 65
e 274 80
e 274 143
e 274 144
e 274 161
e 274 177
e 274 244
e 275 1
e 275 11
e 275 12
e 275 87
e 275 184
e 275 262
e 275 267
e 276 100
e 276 120
e 276 122
e 276 136
e 276 179
e 276 185
e 276 245
e 277 52
e 277 63
e 277 92
e 277 136
e 277 141
e 277 220
e 277 236
e 278 61
e 278 116
e 278 137
e 278 143
e 278 236
e 278 267
e 278 279
e 279 75
e 279 91
e 279 145
e 279 179
e 279 224
e 279 226
e 279 258
e 280 35
e 280 58
e 280 69
e 280 88
e 280 88
e 280 92
e 280 152
e 281 92
e 281 98
e 281 219
e 281 272
e 281 295
e 281 298
e 281 299
e 282 41
e 282 106
e 282 170
e 282 201
e 282 206
e 282 230
e 282 298
e 283 37
e 283 59
e 283 71
e 283 89
e 283 128
e 283 261
e 283 277
e 284 133
e 284 138
e 284 143
e 284 209
e 284 212
e 284 233
e 284 265
e 285 43
e 285 60
e 285 109
e 285 138
e 285 147
e 285 234
e 285 299
e 286 98
e 286 109
e 286 161
e 286 163
e 286 214
e 286 244
e 286 252
e 287 16
e 287 19
e 287 84
e 287 137
e 287 156
e 287 158
e 287 198
e 288 38
e 288 45
e 288 50
e 288 156
e 288 184
e 288 185
e 288 257
e 289 15
e 289 43
e 289 148
e 289 178
e 289 186
e 289 212
e 289 278
e 290 28
e 290 28
e 290 70
e 290 190
e 290 195
e 290 278
e 290 297
e 291 25
e 291 103
e 291 144
e 291 165
e 291 171
e 291 190
e 291 232
e 292 173
e 292 186
e 292 188
e 292 236
e 292 240
e 292 277
e 292 299
e 293 11
e 293 26
e 293 31
e 293 91
e 293 135
e 293 147
e 293 225
e 294 13
e 294 188
e 294 203
e 294 217
e 294 230
e 294 269
e 294 272
e 295 120
e 295 154
e 295 202
e 295 246
e 295 260
e 295 273
e 295 299
e 296 97
e 296 102
e 296 103
e 296 189
e 296 214
e 296 247
e 296 286
e 297 13
e 297 53
e 297 127
e 297 141
e 297 184
e 297 242
e 297 253
e 298 99
e 298 104
e 298 160
e 298 181
e 298 186
e 298 193
e 298 261
e 299 109
e 299 134
e 299 140
e 299 163
e 299 257
e 299 259
e 299 291
e 300 56
e 300 65
e 300 106
e 300 131
e 300 164
e 300 185
e 300 249
